
  22   10
  10   10   10   10   10   10   10   10   10   10

   0   0   0   0   0   0   0   0   0   0   0   2 2 7 
   8   0   0  10   0   0   0   0   0   0   0   2 6 3 
   9   0   0   0   0   0   0  10   0   0   0   1 4 
   9   0   0   0   0   0   0   0   0   0  10   1 5 
   9   0   0   0   0   0  10   0   0   0   0   1 8 
   6   0   0   0  10   0   0   0   0   0   0   1 8 
   9   0   0   0   0   0   0   0  10   0   0   1 8 
   6  10   0   0   0   0   0   0   0   0   0   2 12 9 
   8   0   0   0   0   0   0   0  10   0   0   1 10 
   4   0   0   0   0   0  10   0   0   0   0   1 11 
   5   0   0  10   0   0   0   0   0   0   0   2 14 13 
   9   0   0   0   0   0   0   0   0  10   0   2 14 13 
   7   0   0   0   0   0   0   0   0   0  10   2 18 15 
   5  10   0   0   0   0   0   0   0   0   0   2 18 15 
   9   0   0   0   0   0   0   0   0  10   0   1 16 
   2   0   0   0   0   0   0  10   0   0   0   1 17 
   6   0   0   0   0   0   0   0  10   0   0   2 20 19 
   8   0   0   0  10   0   0   0   0   0   0   2 20 19 
   9   0   0   0  10   0   0   0   0   0   0   1 21 
   5   0  10   0   0   0   0   0   0   0   0   1 21 
   2   0   0   0   0   0   0   0   0  10   0   1 22
   0   0   0   0   0   0   0   0   0   0   0   0 
